Route #1: 2 45 5 8 46 4
Route #2: 42 44 41
Route #3: 14 47 15 16 11 9 10 13 17
Route #4: 23 21 18 19 49 22 20 24 48 25
Route #5: 31 29 27 26 50
Route #6: 12 7 6 3 1
Route #7: 39 36 40 38 37 35 43
Route #8: 33 28 30 32 34
Cost 77883.7